(set-info :Origin "This instance was generated by: BanditFuzz-- an RL fuzzer for SMT solvers" )
(set-info :Author "Joe Scott, Fed Mora, Vijay Ganesh" )
(set-info :Contact "Joe Scott, joseph.scott@uwaterloo.ca")
(set-logic QF_BV)
(declare-const bool_0 Bool)
(declare-const bool_1 Bool)
(declare-const bool_2 Bool)
(declare-const bool_3 Bool)
(declare-const bool_4 Bool)
(declare-const bv_0 (_ BitVec 32))
(declare-const bv_1 (_ BitVec 32))
(declare-const bv_2 (_ BitVec 32))
(declare-const bv_3 (_ BitVec 32))
(declare-const bv_4 (_ BitVec 32))
(assert (bvsge (bvashr (bvurem bv_3 bv_3) (bvxor bv_4 #x107218df )) (bvxnor (bvsub #x4035a889  bv_4) (bvnor bv_3 bv_4))))
(assert (bvugt (bvlshr (bvsdiv #x878d592a  bv_2) (bvnand bv_4 bv_1)) (bvnor (bvsub #x2b71f85a  bv_2) (bvmul #xcfed7824  bv_1))))
(assert (bvult (bvnor (bvsrem bv_0 #x2436525d ) (bvashr bv_2 bv_2)) (bvsrem (bvadd bv_3 bv_4) (bvxnor #x0bca03b6  #x8de93d5d ))))
(assert (bvslt (bvudiv (bvsdiv bv_2 #x22d7cf58 ) (bvnor #x19a23c1a  #xc7a09e62 )) (bvshl (bvmul bv_3 bv_0) (bvsub bv_4 bv_2))))
(assert (or (bvult (bvand bv_2 bv_2) (bvlshr bv_2 bv_3)) (not (bvsgt bv_3 bv_2))))
(check-sat)
(exit)
